data/solutions/recovery/degenerate/moderate/flexible/degenerate_moderate_instance36/10.sol
Elapsed time: 8.03
Upper bound: 1410124342.0
Planning weighted value: 37027756009.0
C[0]=1410124342.0
C[1]=1410064064.0
C[2]=1409969489.0
C[3]=1409845119.0
C[4]=0.0
y[0]=3
y[1]=3
y[2]=0
y[3]=3
y[4]=0
y[5]=3
y[6]=1
y[7]=3
y[8]=1
y[9]=1
y[10]=2
y[11]=2
y[12]=2
y[13]=0
y[14]=2
y[15]=2
y[16]=1
y[17]=3
y[18]=0
y[19]=3
y[20]=0
y[21]=1
y[22]=2
y[23]=3
y[24]=3
y[25]=1
y[26]=3
y[27]=0
y[28]=1
y[29]=2
y[30]=0
y[31]=2
y[32]=0
y[33]=3
y[34]=0
y[35]=3
y[36]=2
y[37]=1
y[38]=1
y[39]=2
y[40]=1
y[41]=0
y[42]=0
y[43]=0
y[44]=1
y[45]=1
